108
#Comment!
LJ  0.38355096679895806   0.46570749278342477   -0.36946285416201713
LJ  -0.18869326894304944   0.25948987745193441   -0.14403392784479238
LJ  0.34179601505092289   -0.319311711571096   0.27400592472483914
LJ  -0.41237086257734462   0.12831815989361431   -0.31738312117376349
LJ  0.40206976611201328   -0.18579642757986242   -0.4691065308205688
LJ  -0.36660113008800732   0.1227318601962733   0.26583611921683459
LJ  -0.2120227090673614   0.086559715793566167   0.13063385910871542
LJ  -0.15929291711423621   -0.037466647026224112   0.078836378633553625
LJ  -0.23953210502921993   -0.45714110551650061   -0.36813685937601476
LJ  0.31058231548936882   -0.11823151901706673   -0.43172823170889735
LJ  -0.42401380811422151   0.43243416941815543   0.24442489568043602
LJ  0.31171614264511821   0.33949380051320777   0.4035192082732238
LJ  -0.24927088838403313   -0.22014682080545805   -0.012245048234899634
LJ  -0.49282394969021581   -0.26853813515387875   -0.33843951086113416
LJ  -0.40801641884326734   -0.32757211467409741   0.014432669771938661
LJ  0.39817996481384033   -0.073798674110969464   0.22023057163382409
LJ  0.1204023690701308   -0.36789388510770299   -0.27203507713833669
LJ  -0.37579904749512921   -0.34029148761207773   0.34437606935428411
LJ  0.24905173314280121   -0.46935793193447667   -0.40223946700974306
LJ  0.32597375356945252   0.43698385051022304   -0.32045920448112092
LJ  -0.019471229824316625   0.26388821162919857   0.46766364934605942
LJ  0.13987262889540542   -0.17054385511480455   -0.21103416112996348
LJ  0.18324654570762244   0.004797214702764987   0.44365798984073546
LJ  -0.14665368747884466   -0.073655096582641785   -0.16188625263317322
LJ  -0.34149346869007696   -0.41344379590252556   0.088694151229825116
LJ  0.19768126110815001   0.35587940056018852   0.37819590994648311
LJ  -0.10190285331901222   -0.067918694896472204   -0.0014821798641077738
LJ  -0.02396058218002204   -0.42489460284157005   0.28753530130027621
LJ  -0.28729226535000885   0.087727186099812463   -0.088694785003009743
LJ  0.49612504120117046   -0.069909450990738267   -0.063460772943524216
LJ  -0.16026846813971349   -0.41517594113673262   0.42465768298056888
LJ  0.48292465134557283   0.39264408625232106   0.44207586794009518
LJ  0.43298173039172144   0.047978414710373708   0.30603691238515907
LJ  0.21229908987241125   0.061990537132168962   0.22528235291201543
LJ  0.49307262047025785   -0.15283278305040646   0.45242075233959383
LJ  0.34182251264553581   0.26566982348888718   0.37216270780953342
LJ  -0.46205849226459583   -0.28358142407142828   0.12161378074271513
LJ  -0.43302778067002007   0.43214766983758185   0.1408979167778385
LJ  0.04684461098987263   0.42200656050120317   0.025595907631620965
LJ  0.27114577153033748   -0.22845351219893539   0.2883956220970324
LJ  0.059118568483906446   -0.14292878824825139   0.45980830659435201
LJ  -0.19626592428248349   -0.24784442090423031   -0.21627129407651938
LJ  0.20384254673773128   -0.447534826788414   0.090462555991350266
LJ  0.48922238947606322   0.26979539675486841   -0.30124426670412641
LJ  0.4039475609291075   0.27151622314001306   0.25357858250358378
LJ  0.44236303027190771   0.16296339203848376   -0.45726939724981996
LJ  0.017753633562542389   0.17217818127134296   -0.15108615587381374
LJ  -0.45370881699243998   -0.16873906958271437   0.38048043408099763
LJ  0.17095014961143018   0.43066608476379825   0.24282697276122883
LJ  -0.061798513733104632   0.37476434224699989   -0.084409926235056387
LJ  0.27577719068153927   0.16582578946665638   -0.25629938542630404
LJ  0.4981700311523824   -0.40310225488306173   0.10018153910086394
LJ  0.35051749280569638   0.30458501332960181   -0.32971438913883166
LJ  -0.15692370224275673   -0.081400237127063332   -0.39519413839698703
LJ  0.37842502406854273   -0.38244366499640281   -0.43938178593897587
LJ  -0.49797178927637253   0.41509145168885891   -0.35814725456665297
LJ  0.3747616617326357   -0.17818906064862741   -0.27317839917259101
LJ  -0.083508945521059072   -0.28828833125723452   -0.38625494402601979
LJ  0.44011110975957435   0.074295913219876886   0.41125597445518169
LJ  0.0010886619015919551   0.27306962466676177   0.26793597792524498
LJ  -0.33719919404380072   0.269256433264975   0.01263160099811134
LJ  0.382385201214899   -0.47567797657162231   0.39697413905888945
LJ  0.3102658169212828   0.41601324713903637   -0.068317696445808845
LJ  -0.27427961477121615   0.24025566614148508   -0.29974467943653371
LJ  -0.10362217365955689   0.15426232346699734   -0.40644678528828393
LJ  -0.37882290526295237   0.30829794317132364   0.17246686536000844
LJ  -0.43221250216713902   -0.31334667217185047   0.40165806971968498
LJ  0.10379173428234344   -0.28378511503402876   -0.20100400193712983
LJ  0.20732081676771244   0.30730955811137578   0.4798113038315131
LJ  0.45972807550120814   0.098118101754142151   0.1162728440515973
LJ  0.30025921974577446   0.44212830213415971   -0.4692694172120066
LJ  0.14250451614797774   -0.10037268460552676   -0.31111303719779554
LJ  0.22402898402383159   -0.43189133776322119   -0.20736689405297043
LJ  -0.16680395069094905   0.32113737319587027   -0.48044511296581627
LJ  0.48067287277106618   0.46204254526069116   0.18229814789010459
LJ  0.05959934388310114   0.13352704788644415   -0.05074667786311917
LJ  0.055698841420702951   0.36419017435341083   -0.10843415965807524
LJ  -0.27396584426529552   -0.25393607121124606   -0.26458400319265585
LJ  0.3590928984984979   0.18282379121653097   0.32280402834526517
LJ  -0.47670883097360317   0.049296549096561754   0.22426259448659211
LJ  -0.24037064112066345   0.17706515806482825   -0.35942938961889659
LJ  -0.14105564651667737   0.092011590063128409   -0.49500342507474104
LJ  -0.4930565819617978   -0.39600085755641518   0.37962585394074272
LJ  0.13078245072937494   0.32864469826204112   0.4121742883115424
LJ  -0.056201248828009566   -0.20912020583222274   -0.47471036343593009
LJ  0.45880496363858225   0.23117252615552975   -0.36573570712528203
LJ  -0.48053276570328435   -0.43948569792669256   0.24947794620250199
LJ  0.30161340073250165   -0.22958223373094527   0.21250389408229095
LJ  0.46798498382096976   -0.23527335684178824   -0.48255403637082156
LJ  0.17631234648845909   -0.4704344292464564   -0.27125141063744757
LJ  -0.29118436262536129   0.064004979927016967   0.45587552466422532
LJ  0.26165151279816895   -0.39347786197569551   0.35077292848630287
LJ  0.20557840204422176   -0.30124394317409176   0.13161662339118929
LJ  -0.36664192286440522   -0.29482503556332884   -0.079069941278145414
LJ  0.43804100279624997   -0.094597886269242662   -0.27029443861720465
LJ  -0.022274980790719809   -0.26560958550937686   0.44417478328254051
LJ  0.0032863282967180649   0.44234003656403525   0.11470993424628895
LJ  0.12502238812205477   -0.33060225237810642   -0.43781718895049915
LJ  0.27450999629550249   0.41223023622188676   0.36704119476211416
LJ  0.0069781163045737928   0.34845759440366492   0.028728732667792044
LJ  -0.4786859054535314   0.33187209071120422   0.092900553039536746
LJ  -0.35102111720515744   -0.089847210516591974   0.25216093975054926
LJ  0.11898774993298121   0.34124256506611839   -0.0007675176260537851
LJ  0.36811810212413326   0.064179730101937893   -0.17610338787850358
LJ  0.26060380935702515   0.024646563776212389   -0.21687006301223685
LJ  -0.32385367836808798   -0.15893899300170919   0.051736374160179018
LJ  0.30807334202535391   0.25626755109595173   0.19789301327276118
LJ  0.4041517192786096   0.21048184914622486   0.41907392654196879
