108
#Comment!
LJ  0.39608024269419856   -0.42920246572477166   0.085575343718981872
LJ  0.095155568738508556   -0.24887595659381184   0.2758044630390063
LJ  0.28569456367889962   -0.032033246496859097   0.27825701416998655
LJ  -0.46397525665849026   -0.094395480253961939   0.47629732618286996
LJ  0.27079138296097216   0.18777857478973839   0.36143904401339028
LJ  -0.32062482922697294   0.077312901070833787   -0.033415382528571604
LJ  0.29273411701884849   -0.29472785194556284   0.25003445097218635
LJ  -0.0079025966532624697   -0.38736167730264426   -0.21334695541151721
LJ  0.032354315294465162   0.48086280461564784   0.36595506133196681
LJ  -0.21271823685776262   -0.31217195906982698   -0.44307042346155207
LJ  -0.10576296152961143   0.24485521013403516   -0.14669067075782533
LJ  -0.024618589948373761   -0.40566354194125864   0.21748278730775675
LJ  0.46237638184307767   0.016351346631827423   -0.08908732767863034
LJ  0.28327631338861325   0.47173747722354259   -0.045126638769294486
LJ  -0.31744921284635391   -0.15078631262787209   -0.070425078069944011
LJ  -0.00017367335495807251   -0.23792929728960935   -0.44252488719379457
LJ  -0.086678269220578669   0.15822443411958828   0.49126917080273225
LJ  0.3723835942391634   0.39535650233128777   0.19562106096586016
LJ  -0.29606281786260819   -0.10914666036928912   0.23460653202548393
LJ  -0.41284611532781118   0.32993835656317561   0.26723232250282036
LJ  0.46948311702355755   0.20041721035895915   0.39348686936907712
LJ  0.23634635261678097   -0.075955248997669672   -0.060213371047109776
LJ  -0.17048425023815375   -0.25478057412859234   -0.26339454997460637
LJ  0.11832255120141609   0.1357355025358272   -0.092442895069939829
LJ  -0.043581541713811428   0.32312119059377575   -0.33214656627669192
LJ  0.10057259576292055   -0.24153726278471754   -0.11666569669004934
LJ  0.35536748357373898   -0.33644118641066822   -0.42346761831853025
LJ  -0.16904671850010439   -0.4833014439086028   -0.30220432386264329
LJ  -0.22864251946691685   -0.32994285182140443   -0.073135121623645688
LJ  -0.44959122624022335   -0.0565273303967904   0.080545544058399601
LJ  0.42297191569274151   0.22475946117368129   -0.21885420346597659
LJ  -0.12826300113713068   0.03026759202257252   0.24552725028201078
LJ  -0.24547349816644565   -0.49270497458622292   -0.49207008545385
LJ  0.061109098409382744   -0.43079549929945227   -0.43599936958693436
LJ  -0.20919175003793219   -0.021139604084891999   0.43179003929537402
LJ  -0.24537936469554295   -0.29040370642788171   0.16518758979608683
LJ  0.32295310965313673   0.05663084546952795   0.096057178692052811
LJ  0.49304543203919099   -0.19396474873746491   -0.051241626798118944
LJ  -0.22538631325207406   -0.047748938351768258   -0.22588502397114674
LJ  0.30857585795950659   -0.33297010123395659   -0.07840432326367322
LJ  0.12841129796750661   0.30254458493042291   0.46626115845282051
LJ  0.16326787566358805   0.082204939896086196   -0.45557228617508028
LJ  -0.41584335488949353   -0.38530687916936984   -0.48494268925197648
LJ  -0.0019110839116123388   -0.093424847992502391   -0.23685040940068208
LJ  -0.42951912436783679   -0.19693369784710166   -0.25102750155056913
LJ  -0.38240756350701038   0.14191950838100884   -0.23039482048312709
LJ  -0.35996305881669094   -0.38361433053789984   -0.22145150700764332
LJ  0.3557993265674807   0.022289130826122064   0.4683078124572787
LJ  -0.31164412714154432   -0.1480765799965594   -0.41264119530744742
LJ  0.069261612371504147   -0.058255808099593506   0.24622345878304905
LJ  -0.21061266372086146   0.45998713050830048   -0.10495821423927117
LJ  -0.49346910505593627   0.45348551817766364   -0.093066110396071655
LJ  -0.13906826562841995   -0.21507427383980368   0.3530940180539357
LJ  -0.071218614065028912   -0.19600588864738289   0.15801367274314543
LJ  -0.10565962231464819   -0.060985918890023201   -0.40026868408748312
LJ  0.1386770413146404   0.12221107906249795   0.1410268565848059
LJ  -0.078100411120922364   -0.39654769706204679   0.034569463399153198
LJ  0.32874718835703176   0.2635443911257952   -0.033454509390541891
LJ  0.24136757262472483   0.43683484933781203   -0.40216975362284646
LJ  -0.092810891593234815   -0.18738516684712134   -0.068106119988716046
LJ  0.34815869921556275   -0.12594387367837995   -0.40001844789931273
LJ  0.030747277099935789   -0.034079104601876666   0.4390648818405592
LJ  -0.032469507105663188   0.36080778034199995   0.18925459122282104
LJ  0.42824677141404371   -0.40836713471627606   0.33440768542098176
LJ  0.31391233173637451   0.22878839358832626   -0.44155234930093118
LJ  -0.47274138308402397   -0.18738268591594565   0.23364655696903125
LJ  -0.4669355503289051   0.13813419421319792   0.051133066346584211
LJ  0.19958658371303767   -0.14423361396403497   0.41405138849369749
LJ  0.14894765613912647   0.31229437204802468   -0.043967462099162011
LJ  -0.27192932480213999   0.15365614865837154   0.18855750898843654
LJ  -0.014049561128713499   0.19824624096381249   0.038056226701978023
LJ  -0.27669340552634897   0.27102152372544802   -0.42078932728012192
LJ  0.4356593339019087   0.44048318672910985   -0.32817770762688797
LJ  0.35715806388072374   -0.18333627522024729   -0.20490739411348152
LJ  0.051289617437497485   0.16319944592975852   0.34150950395447338
LJ  -0.42748533032388436   -0.35880870028808309   0.039298146681119368
LJ  0.019478947251242426   -0.043673343799057407   0.029469122117515574
LJ  -0.34960260609084737   0.35184843136780475   -0.17610553562903591
LJ  0.36599422071247717   0.4197112158185804   0.37845090410079124
LJ  -0.37335071291199634   -0.47313321626059879   0.28856909508747275
LJ  0.16948915963052877   -0.30665620510108221   -0.30703563920839877
LJ  -0.35040394010797071   -0.25475917232467121   0.37907236349844953
LJ  -0.37157242506227772   0.33618756636978481   0.053523868170809272
LJ  -0.0080235607429156777   0.10857544012424554   -0.31093146285514806
LJ  -0.33852522198710255   0.12869065375370234   0.40981198777845346
LJ  0.36763038961422517   -0.15398581438184275   0.099494536040926243
LJ  0.14010116247834575   -0.11545187645381326   -0.39938981926977818
LJ  0.22386386283883999   0.0087550167586060556   -0.23570123388706102
LJ  -0.32027245072687632   0.061441143799293239   -0.39945392500308396
LJ  -0.17487965804790309   -0.49541043070397744   0.28429275198054399
LJ  0.19660394491859559   -0.46128724377808661   -0.20708341525480353
LJ  0.13672514470764432   -0.20520613924391545   0.076044264097694103
LJ  0.19855414648986439   -0.35636331970945329   0.41669938049546207
LJ  0.4249566575934377   -0.39582933702012824   -0.22575044621493293
LJ  0.1766719741275013   0.34004786721240926   0.16829830289454403
LJ  -0.48072752570447641   0.05367045043255745   0.27141150620317955
LJ  -0.4351420482633499   0.39578992394117285   0.46064093830253972
LJ  -0.49450472099680853   0.17781110922621157   -0.39721503392909074
LJ  -0.22623342449632672   0.29948337571419487   0.31266646513914104
LJ  0.20694180925043132   0.27638392238859144   -0.26281949050891168
LJ  -0.49534457008807947   -0.013993120231049474   -0.28828836107587025
LJ  -0.17588268995328951   -0.039171008122480144   0.048463628657515204
LJ  -0.028895584788862349   0.42404946230438356   0.0066916440503242448
LJ  0.12050870988535066   -0.42239601584082287   0.018689357817673464
LJ  -0.11609513545956422   0.36034093496859243   0.48827544069092327
LJ  0.17735789704465968   -0.46363557714924536   0.22544029416724498
LJ  -0.084191414562734809   0.04157541260797451   -0.10960633516975588
LJ  -0.29552748615621205   -0.48377227063489492   0.066778266677314541
