108
#Comment!
LJ  0.17408804929402422   0.25981603837769723   -0.055336307039622931
LJ  0.35086626287451916   -0.071237858734981133   0.2354172429408814
LJ  -0.4809210174219602   -0.49068706792543687   -0.32766924453790491
LJ  0.21735365614775973   0.052718431485657122   0.32207695862068553
LJ  0.020328932778346361   -0.46025661549905533   0.30625361030957837
LJ  -0.094522614632844587   -0.19826519519043437   0.44224948478772458
LJ  0.048615508467604082   0.31168179250359757   -0.23519198725265872
LJ  -0.37118541130075133   -0.34344723055182064   -0.17670520669357775
LJ  0.20365713326521589   0.47550091272521533   0.26735335651219128
LJ  0.34044200860786988   0.47024016817162806   -0.26568426435791276
LJ  0.097290051639878181   -0.3183944324633845   0.14861985938100736
LJ  0.16122116627127175   0.34194542704933428   0.40994565449716985
LJ  -0.4942100417345503   0.1498865607741254   -0.22635501464784441
LJ  0.21565678732841584   0.26627020971521131   0.18596251068321765
LJ  0.07569946684333094   0.45713549477971294   -0.088598165014421082
LJ  0.44158850795417159   0.14920749356801247   -0.42024036221017297
LJ  -0.018085496165936896   0.29324999321143064   0.027562196240556523
LJ  -0.33549325379191375   0.2561964759489464   -0.1101648481649067
LJ  -0.084408142278856277   0.44732540840699375   -0.24720517183601784
LJ  0.35739290054091039   -0.0060266976650589135   0.468851953768814
LJ  0.1955709074982134   0.062739309452555514   -0.13160597413972694
LJ  -0.27439605547355589   -0.061107574258546446   0.45017337325329454
LJ  -0.15451295857250763   0.15987785836306681   0.13560640600418195
LJ  -0.02889296434487856   0.33226084598730776   -0.4920133050712569
LJ  0.088160003805674056   -0.47860109549438218   -0.49286098219564078
LJ  0.40712166916105419   0.33295224205842044   -0.44520476529562303
LJ  0.39948792952777334   0.20415965847061379   -0.057017316556652722
LJ  -0.090498951002972672   -0.15188789559393637   -0.17942486651550413
LJ  -0.2669500932173674   0.33276700741912985   0.25726615850000506
LJ  0.099318591432759631   -0.076103537924934128   0.43291476821650782
LJ  -0.43785307007059526   0.054910403501194631   0.39356270407861144
LJ  0.39178569872731933   -0.19029013760012389   -0.39608741828541255
LJ  -0.17446527572643258   0.24665779035819785   0.41432699609834733
LJ  -0.28255163493098512   0.37877813348109701   0.061255109630011691
LJ  -0.15306161986083877   -0.33355250753500992   -0.26679439760180751
LJ  0.29070435974973846   -0.35883110541679986   -0.42291420031966159
LJ  -0.21731096094799815   0.068242127892585505   0.28600966266532563
LJ  -0.29623644959882689   0.094076936661097288   -0.24785669283097631
LJ  -0.11674342073706125   -0.19000185795191041   0.035055202403098611
LJ  0.4353200450974663   -0.012158101843794896   -0.047165772300884708
LJ  0.033786042833003377   -0.30486163959042711   -0.342021141680805
LJ  -0.056323416542305757   -0.049534603668598833   0.21418556534869865
LJ  -0.37494522956200055   0.013923514592379956   -0.053827591429499215
LJ  -0.17648000904360722   0.010246159512457609   -0.038809974488394176
LJ  0.32150686721759886   -0.1652960719291004   -0.15092643093498379
LJ  0.19745217096876683   -0.1161512636821023   -0.38757261489409972
LJ  0.00058092958404281942   -0.33651950188667695   -0.1047613908547754
LJ  -0.4980484698037389   -0.24291268249052045   0.23145981041124766
LJ  0.097073137893044059   -0.11976068324353387   -0.2128503762090424
LJ  -0.45923379736967923   -0.1631468194585611   0.44758670962832625
LJ  0.40768672984731563   -0.32604077144467802   -0.22223392865350056
LJ  -0.19979315027809932   -0.24335113189407265   0.23029209161966666
LJ  0.34626493620034776   -0.4451044009703054   -0.072112944985994826
LJ  -0.016215000967000855   -0.11773612036844926   -0.3928314581224982
LJ  0.46823748581107305   -0.31294429602063245   -0.023803614929174741
LJ  -0.46477210356081378   0.4812747101572486   -0.012246348084640602
LJ  0.0036177122657135271   0.036891483471806152   0.036551093450532327
LJ  -0.091686992121967958   0.1912046483302664   -0.36049889778168076
LJ  -0.32247861107148523   0.4189112821951782   -0.22282860736471444
LJ  0.33195751003834328   0.453168479265109   0.42537406388482829
LJ  -0.054049666905463839   0.34677312725736265   0.27584284444643714
LJ  -0.45348886510660719   0.26417465009854085   0.39428122229252138
LJ  0.052339482115032664   0.15488640812688248   -0.49662193354983997
LJ  -0.28329865033831553   -0.19169543776917722   -0.093103620869427153
LJ  0.2509736325292512   0.091447027258211563   0.054608315073215313
LJ  -0.006736444705163408   -0.47346742044605389   0.088502512784836257
LJ  -0.29719836805634564   -0.28382252258741575   0.42641360134220263
LJ  0.18422084109140036   0.36560312655895916   -0.37598386877603196
LJ  0.49730792175768307   0.35757252707664516   -0.18990855173972768
LJ  0.062807999760900679   0.17315337739947503   0.25415342974737537
LJ  0.20149626301327977   0.41712092405696727   0.058616736266809723
LJ  0.38161467764823231   0.3653439716321546   0.26249110826887767
LJ  -0.22601471179496915   -0.44744018349434855   0.20495403666574968
LJ  -0.097032825560580238   0.041350158809808427   0.47853236906855795
LJ  0.43649510956851117   -0.35096194534682768   0.4069165693202082
LJ  -0.3689054394103452   -0.27089882820064448   0.078907484570412745
LJ  -0.4237445838441799   0.49987402479289061   0.43939359664411715
LJ  0.30072816862845414   0.23418773018943417   -0.23227236590670797
LJ  -0.19256194642793278   0.47811418197882188   0.43329685616547498
LJ  0.30933940514540337   -0.20626624806793808   0.42181409388824981
LJ  -0.35200993285283572   0.14924738911417135   0.12305793369651247
LJ  -0.28489622588996699   -0.14728988091449544   -0.34981061587281509
LJ  -0.46006755215508516   0.33375664107717928   0.13405463346494609
LJ  0.13995822054387672   -0.18432540723322671   -0.040343338716225925
LJ  -0.43515198052725129   -0.45305199643390431   0.21758527984451187
LJ  0.41450406653783689   0.1874165385208009   0.17276149764814436
LJ  -0.23157054815596412   -0.40463385807664015   0.0022823295978000838
LJ  -0.43565478361601589   -0.26918997787419913   -0.36246102634725624
LJ  -0.46380836907741146   -0.13018400098833394   -0.19596189833481764
LJ  0.10216300341332678   -0.28923590695015655   0.39106531690008678
LJ  -0.28231039112233375   -0.42404299387664007   -0.40649840401029874
LJ  -0.25704183899091831   -0.062495727075253943   0.13327517255776025
LJ  0.2808533655029305   -0.33392881397228275   0.27151653905920098
LJ  -0.08663380848373696   -0.38356879620676926   -0.49036242385575546
LJ  0.062185842379877128   0.080017117619592043   -0.30409008359599343
LJ  0.24149913104315934   0.11545295170118258   -0.4226557713174327
LJ  0.16366347164090139   -0.076989730589085023   0.17656543706195127
LJ  -0.30833377254687461   0.13526776238035609   -0.45088046248679886
LJ  -0.072397431011401017   0.19284334584641544   -0.15376580573039347
LJ  0.2637558771251437   -0.28219259339789277   0.042633492051289697
LJ  0.36061048128499695   -0.47656447089630738   0.11254769545369432
LJ  0.34358009889935176   0.025047127752205585   -0.24296873563282484
LJ  0.17645161237159132   -0.41947910848178876   -0.2076381940151287
LJ  -0.44803849289107195   -0.062361371634746879   0.14267913871299609
LJ  0.3518185616983513   0.22103476411660417   0.39547848400371888
LJ  -0.42875530013746388   -0.019677436798321783   -0.38737351801450731
LJ  -0.30694433149541256   0.33023416624985602   -0.43134637720203489
LJ  -0.13000471955751053   0.0075673962083554029   -0.27738186037207779
