108
#Comment!
LJ  -0.44993626630882394   0.40662295155331935   -0.48774336048246686
LJ  -0.2588591893360972   -0.21380939064353793   -0.32041905955258737
LJ  0.42318497194814081   -0.38504241914877002   -0.24804200703645979
LJ  0.25996961608205482   0.04201000306862019   -0.13556449020469516
LJ  -0.066749287745741417   0.27263718568959466   0.48515307831202542
LJ  0.082377493446429487   0.4711719202026734   -0.48912114937977597
LJ  -0.11129842193739142   0.41178082184057685   -0.20793825995351822
LJ  0.3433141182338596   0.38169100843685067   0.49468901295696249
LJ  -0.082348686016170305   -0.16809588695023406   -0.43770723969583453
LJ  0.19159443879272597   0.46106405305952491   0.34144316998200919
LJ  0.43049546734137789   0.42296005123417646   -0.32512659415229794
LJ  -0.16095032854602218   -0.42201668951582488   -0.27691705206893763
LJ  0.1033163799598687   -0.15697523171531455   -0.32609416549661169
LJ  -0.26837139555147316   0.065135174109488284   0.17299398808531133
LJ  -0.41107785130073099   -0.24130765096986029   0.052939641897068748
LJ  -0.38435166604301657   -0.39768785360680503   -0.3685445607709828
LJ  -0.052221526026178654   0.23643662403162635   -0.28312833829846606
LJ  0.46743741325471427   -0.034120385594112693   -0.24825151362034362
LJ  0.079756959860206408   -0.0030739601840805877   -0.1717038110936423
LJ  0.25511600012879487   -0.2734761093226668   -0.26208036780389976
LJ  0.23859098060220915   -0.10811838040552163   -0.48109657692747981
LJ  0.20625234539316376   0.14840715070679625   0.040074685323391278
LJ  0.40322584894473718   0.057845739252565122   -0.42437695636683798
LJ  -0.09625090853842945   -0.010580937104010717   0.25430237460649169
LJ  0.36619098180044407   0.36726490147244917   0.28592714526226504
LJ  -0.42420596696471158   0.3882662843022468   0.31400920141431632
LJ  -0.30892047321796801   0.44783475211385826   -0.079178023853199705
LJ  -0.23823335059050679   0.39862638122856991   0.40353834674507855
LJ  0.058033026471064099   0.40341671256073947   0.18238156308988018
LJ  0.086964227895252461   0.29256417534846729   0.36294488325552221
LJ  -0.22333262274236274   0.32171588277465379   -0.39995436541903995
LJ  -0.44304759465194582   0.16959824989801367   -0.2342680483301377
LJ  0.039320717609628936   0.094692891683138519   0.38024735239658192
LJ  -0.37829038319678954   0.40049801869213014   -0.2867107448882818
LJ  0.22865659344704145   0.48975599339230597   -0.35538170115334822
LJ  -0.46748509296783852   -0.21893976686300978   -0.27148542872965603
LJ  -0.23619548626214845   0.22279782800985412   -0.1684823901643672
LJ  -0.34949568685478677   -0.11958628352428384   -0.13124581303576605
LJ  -0.38012096252967403   -0.41998156516127205   0.41607551870356391
LJ  -0.22693966190482998   -0.348309649514422   -0.061847052941104264
LJ  0.40918083432380614   -0.428917515213671   0.015121091470010398
LJ  -0.098212592716278788   0.4942111337579696   -0.014745401528059355
LJ  -0.27219105260558396   -0.13133412729688176   0.24515562669147625
LJ  0.10420641868022605   -0.33929554716756083   0.20467166749863125
LJ  0.27711224594626488   -0.43809618879099954   -0.13304286130555928
LJ  -0.13587832139237549   0.059543416604794987   -0.19209824692119368
LJ  0.23873041851868362   0.36320967871399495   0.096354351902620275
LJ  -0.41875346410183328   -0.38087421502823182   -0.12081405648929491
LJ  0.44253138527212327   -0.19146899552277896   -0.42856281458466167
LJ  -0.32444976606987674   0.01340467862635235   -0.30242261774740925
LJ  0.47584185391383782   -0.40707537972317603   0.27936392743909932
LJ  -0.40390951270062236   0.16551701078492628   -0.46277778840394851
LJ  0.049762687736869801   -0.28542797156574345   0.02255099957375415
LJ  0.23577357829530543   0.28773235618812526   -0.36630898067788881
LJ  0.058321216529589277   -0.10107736583598431   0.11937598975579432
LJ  0.28192614187527781   -0.27981673922040556   0.054578382584190691
LJ  0.40216304353121113   -0.17318768048886413   0.16511044962358712
LJ  0.13580646001268132   0.20326422000490041   -0.1887474081684237
LJ  0.43727242742628297   -0.23112960152739337   -0.081319576204311322
LJ  -0.0047672384279772205   0.12121678511296283   -0.022386586197841469
LJ  -0.40166329851928256   0.23435073262420919   0.10238607945124606
LJ  -0.3952946150225628   -0.44740037070608263   0.086970352079576457
LJ  0.44748296785507402   0.38268616662806038   0.10842553638545981
LJ  0.015033545833082146   -0.36486941607854551   -0.38200583438415486
LJ  -0.048810975879679593   -0.20537146946896126   -0.20966143982563709
LJ  -0.058531497652057805   -0.44977241274040414   0.17220995953670226
LJ  -0.1711392345257543   0.24078098820987714   0.050552565598215166
LJ  0.17545750645567432   -0.16100093126272019   -0.086775776146301831
LJ  0.47859984599076055   0.23226978065855541   0.39415711689950683
LJ  0.46318904100015501   0.4223148224979491   -0.11892816050898201
LJ  0.070613920691751417   0.40956050402052369   -0.27622178313051732
LJ  0.35193804947190654   0.21805239023379935   -0.19959135344502849
LJ  0.41783422278809779   0.12692770108704124   0.11717996339990934
LJ  0.37729720508289899   -0.4293757587696676   -0.48208520514795666
LJ  0.071354318937900757   -0.3137383713239445   0.41076350482582336
LJ  -0.49605206087926157   0.02544744225549728   0.30846169132564311
LJ  -0.26728214283891105   0.39305112714629492   0.17140397293361881
LJ  -0.27146677819169929   -0.41436155302139049   0.24654925826978449
LJ  -0.23234891765327817   -0.29435716208007123   0.47817249234946235
LJ  -0.071552592106064239   -0.48386915916615797   0.36092008289600958
LJ  0.094617386583391055   -0.47439235543221164   0.028406418165846176
LJ  0.20539021741557806   -0.18017397525347056   0.26776945635289656
LJ  0.057710477648381872   -0.099480784999815733   0.42004011971444127
LJ  0.28918042330466631   -0.28296384349700149   0.41496847273888648
LJ  0.2940393091219714   -0.40713805127892583   0.19745314940390557
LJ  -0.23198274736796404   -0.090308603249207517   0.4627903563373526
LJ  0.18385205771539537   0.061142126223244275   -0.37185789154715321
LJ  0.23586415282870066   0.025518080349361236   0.32948697806754823
LJ  0.41759699999780536   -0.13973972762484371   0.35289599681824657
LJ  -0.22732091371665505   -0.096686933780309847   0.033783061706294137
LJ  -0.27632945901205191   0.11139024820289067   0.37521596435713894
LJ  -0.16265824455655847   -0.27932877098868431   0.12005628604012547
LJ  -0.060466514110786192   -0.10226139136443278   -0.057446492534239696
LJ  0.44227419039496785   0.020166572976748065   -0.047681842864529596
LJ  -0.19050572923934603   0.11272611562195292   -0.40919139462319309
LJ  -0.3996459363039383   -0.22824023626741283   0.35060752640274434
LJ  -0.41756421281954631   -0.066008347582495283   -0.47282943991179888
LJ  -0.078295036827808626   0.25884104586620788   0.22772124992437626
LJ  -0.45103449005139862   -0.051844129497549143   0.13586560608536399
LJ  -0.34364156911879734   0.075507777810139176   -0.077758459649668363
LJ  0.27042390254207582   -0.056037697626366255   0.058182289149079865
LJ  0.063448916692358012   -0.38865431382586851   -0.19670840446974822
LJ  -0.0044670067527759032   0.3252469392830471   -0.077314542009658413
LJ  0.085026116133210525   0.11184010493227761   0.18069049413312596
LJ  0.2285661933365683   0.37469325573655765   -0.1256993690005673
LJ  0.27892734548036868   0.204869995948147   0.24341997152558342
LJ  -0.10956569116505434   -0.20985225998137416   0.32977857375655983
LJ  0.21631981496046568   0.1757735616890708   0.46110580369143639