108
#Comment!
LJ  0.35517603987763996   -0.13926520532963144   0.14248461601104456
LJ  0.004401820796220376   -0.46328153520389992   0.10934803584654085
LJ  -0.27510929514813376   0.40227176484257199   0.052007502022999016
LJ  0.12095005080847172   0.044675399828788702   0.31763719028512361
LJ  0.21598127555194951   0.041038846897640431   0.053982181677522764
LJ  -0.36741349676319968   0.1392956169585581   0.052172572775164607
LJ  0.37801740597605077   -0.29991343067558146   0.059122151504301897
LJ  -0.074401434121482327   0.29424834198669958   -0.062549301540688981
LJ  -0.065359901225785   0.25732085425050411   -0.30594035888152393
LJ  -0.036198787984169492   0.16713255216243145   -0.046825575602351108
LJ  0.44226129151426402   0.046141195261591342   -0.46067968086840838
LJ  0.10992368776298886   -0.31923998075802906   -0.44621687851228492
LJ  -0.12659189900798942   0.07710001181528249   -0.20947603466941864
LJ  -0.19583105890949654   -0.07869024397298785   -0.1101335879235653
LJ  -0.13235095192293678   -0.17423208568303297   0.35276830887150801
LJ  0.20218994747229982   0.16740912294754098   -0.060912405680464743
LJ  0.46867981697500372   -0.40807225787778589   0.45147422902930262
LJ  -0.25537002733265812   -0.43517244327748161   -0.14701935333846808
LJ  0.098678581262944362   -0.027132194450669903   -0.12659832701761822
LJ  -0.23577089638303123   0.06153549958320291   0.053590590129660373
LJ  -0.10709504964901743   0.18212687689982249   0.026181815752295452
LJ  -0.047007167532001036   0.12605499867676734   0.11732453403778922
LJ  0.46199925740596048   -0.30127370833979872   -0.24626994745271805
LJ  0.0058667529627893789   0.066234630116720108   -0.13461807963030389
LJ  0.37546246406610712   0.13651986608877859   -0.26606136087901727
LJ  0.21681506732232583   0.27760350742566964   0.221965914280914
LJ  0.045906578854485541   -0.32960537243737459   -0.24612564065433928
LJ  -0.49833062911575454   0.39563896899567219   0.071697542533022338
LJ  0.49818772585950238   -0.31707420208275405   0.25578889851656694
LJ  -0.2909252357571197   -0.011472984508796432   0.074022073111022393
LJ  -0.43012150647675934   0.25638225499392137   -0.34468590156040102
LJ  -0.29504976730666493   0.34412433602218567   -0.26191019728356379
LJ  0.16720171867164915   0.091012907343660493   -0.25794247753781713
LJ  0.4161021547909548   0.49113347131111917   -0.0055496730663990483
LJ  -0.092068600264042941   -0.41868050258900408   0.45886029541175932
LJ  -0.18531872969653734   0.37353026415114732   -0.49173460732351437
LJ  -6.2451364103105323e-07   -0.42077030786223657   -0.49803317473294112
LJ  -0.34354857963352609   -0.16400553279953103   0.014896925138705082
LJ  0.12873797701701964   0.058984890913355646   0.4543310666330973
LJ  0.0049536553651502325   0.15580187343544488   0.36892211335777214
LJ  -0.19569871309319872   0.36565653232582229   -0.34610913522794262
LJ  0.27290535469219412   0.11652221838954675   0.10214055169461685
LJ  -0.078250465553311943   0.34272989290878653   0.31400461476939001
LJ  0.37304058807767138   -0.43226667123825885   -0.050869791806660278
LJ  -0.41362838476370389   -0.0034817401536003725   0.046122708374632011
LJ  0.42546308524062137   -0.02361111901471458   -0.35644187970544783
LJ  0.39711253098360982   0.44788782942424499   -0.4918951277236191
LJ  0.18689089925709773   -0.37953242622126832   0.19904028536404564
LJ  0.076275750026521358   -0.21067342622214547   -0.23542777532480857
LJ  -0.35716744608534773   -0.42141053165596787   0.11599032990049893
LJ  0.42704902564224773   0.2291428904757834   0.21165038129063873
LJ  0.42333741892038368   0.060115233733124898   -0.2542045694482048
LJ  -0.2518047775891305   -0.10506329798003813   0.015743660957363261
LJ  0.015319019324785977   0.088128970685055541   0.42788723709066268
LJ  0.060125992674416692   0.21141769603194011   -0.37661070578619088
LJ  -0.17900717569641811   -0.0035023587454762043   0.03352268233740105
LJ  0.36889845531071647   -0.16857695308337575   0.045365918829013592
LJ  -0.18507509528016899   0.31534393660140764   0.22328274580338781
LJ  -0.088696888937014939   0.49478071117111649   0.024716445301230277
LJ  -0.0071100000727727739   -0.29476168715300333   -0.32887701699361255
LJ  0.25817098319021792   0.18769874688562202   0.20747918686375769
LJ  0.2638631585690342   0.43009091230890711   0.19162606843243091
LJ  0.46936513345262221   0.0073277318691274008   0.14426047242755233
LJ  -0.010715309534790302   0.19797504385565154   -0.26251582767543352
LJ  0.20807162567572243   0.026734765432583664   -0.37382673297214547
LJ  0.43110670650969202   -0.3940902793688208   -0.36955884179333026
LJ  -0.13634736517550838   -0.090710471669355072   -0.43913812187478873
LJ  -0.0093307749027985581   -0.40103172451218005   -0.41265095864031293
LJ  -0.0756799207055526   0.20326657221561106   -0.10755210288769972
LJ  0.016713738644994158   0.082735491014265902   0.077304646819069137
LJ  0.40354536555848247   0.36642663786611396   0.19733015450662314
LJ  -0.36050322596894913   0.38901168217621829   0.31920451479324741
LJ  0.096559375174227233   -0.34036876860408216   0.44191483769784562
LJ  -0.054223631225560343   -0.10313546443203733   -0.13316815305360971
LJ  -0.16164101974510833   0.48334354151199388   -0.067567848115401355
LJ  -0.22021704829083463   -0.13306951971673331   0.18707220949433015
LJ  -0.05378540822462638   -0.41991498637411273   0.0032038918370484448
LJ  -0.08345253590048346   0.082936349706645235   0.052342417751689942
LJ  -0.39782974453574133   0.012609704723877522   -0.31036138600982827
LJ  0.45440604410958235   0.32878460060610015   0.36873517349460672
LJ  -0.16359135708017664   0.47162895505450897   0.17989561996687323
LJ  0.09416172029470124   0.48126455297464538   0.42491460179917867
LJ  -0.15612517667030054   -0.37022622906684111   0.38422223588947224
LJ  -0.15209213649273579   0.0023660058874332558   0.38604037245343131
LJ  -0.12616680829856466   -0.24351898470998765   0.44938551613843686
LJ  0.10632289827831291   -0.2938870908796839   0.080690345897131657
LJ  0.11010714012814378   -0.35808404826527457   -0.11392199051959599
LJ  -0.34098324293252369   -0.41990132537866864   0.19520356509562972
LJ  0.19755927967191605   -0.47715504439790529   -0.250654264431595
LJ  -0.4610817492531275   0.19783568832630094   -0.273490653513835
LJ  0.23431118119291972   -0.44793600235720216   -0.033420683778511595
LJ  0.40513017212072538   0.14649232865752268   -0.16639170733848382
LJ  -0.094954505907038508   -0.49970829484723667   0.12791926459371625
LJ  0.47074822580795433   0.41446751805514009   -0.40032278706454744
LJ  0.12933681383494017   0.41771867092843334   0.28456873552172585
LJ  -0.15779156766331559   -0.29589351991076207   -0.24201744773327066
LJ  -0.070910851014312368   -0.36020353005646272   0.086006689903581082
LJ  0.25658069358218716   -0.035622131243754303   0.20676440522436582
LJ  0.33324873542019645   0.35678182683099124   0.1405392163315502
LJ  -0.044579345905279552   0.41470078560609674   0.44711238334762399
LJ  -0.39138580467777689   0.23813185738078743   0.27950670944590711
LJ  0.18867542078028082   -0.37266904681603213   -0.022209766227603272
LJ  0.40871978050891106   -0.05777034652568059   0.35712099556219346
LJ  0.053469923029986641   0.058784199286044135   0.49749145973955888
LJ  0.15329924368621353   0.20133805565787427   0.20566539593770575
LJ  0.0010733106479709101   0.14660637589110526   -0.33806056832838277
LJ  0.31497055963716575   0.12423299100683939   -0.1812940940379216
LJ  0.23026249444182459   0.16932345359681694   -0.22372470283682933
