108
#Comment!
LJ  0.38379826560371338   0.46591044578209401   -0.36976766868865102
LJ  -0.18909438548065693   0.25971504503042314   -0.14373775492746055
LJ  0.34175146676828888   -0.31918009089622235   0.27412118447009587
LJ  -0.4123226589631741   0.1283121864279638   -0.3175318325811291
LJ  0.40205183695610208   -0.1856989687712598   -0.46886413779437852
LJ  -0.36668090965952588   0.12246322288709466   0.26591321927318828
LJ  -0.21193177233384275   0.086430624328640293   0.13075289878219337
LJ  -0.15938118799481815   -0.037162472114866049   0.078887499106527495
LJ  -0.23936262327702926   -0.4573775572386784   -0.3680046343408766
LJ  0.3104919623831604   -0.1178008257448028   -0.4317366762477759
LJ  -0.42431968766318157   0.43272706250682352   0.24443186444085116
LJ  0.31169132946727318   0.33882466208677192   0.40358256037670609
LJ  -0.24934643654862648   -0.21999768932453229   -0.012118219036533116
LJ  -0.49322152914623052   -0.26877212157130603   -0.33815413944522471
LJ  -0.40762321209641694   -0.32735206780691145   0.014680571052264784
LJ  0.39791245967452604   -0.073540661729134191   0.22058320644379786
LJ  0.12046642144630076   -0.3674984583133416   -0.27237095524172827
LJ  -0.37588579650914905   -0.33993397867806652   0.34435212215044519
LJ  0.24911196597804397   -0.46938393779155896   -0.40239419481432387
LJ  0.32588598142564434   0.43685443210882807   -0.32049825649184732
LJ  -0.019479134471026897   0.26360406953427945   0.46775651021461101
LJ  0.13966634014503926   -0.17085151588709982   -0.210988062635521
LJ  0.18341804489585373   0.0047290944554776605   0.44337013772104039
LJ  -0.14668942633687154   -0.073884518472627336   -0.16174660906751773
LJ  -0.34152564301277033   -0.41375812748305552   0.089176762927146366
LJ  0.19769974697575782   0.35635668285283789   0.37798014362112115
LJ  -0.10156122655015067   -0.068067954855585214   -0.0015783857527910774
LJ  -0.023930274909064131   -0.42506170531031129   0.28701990497551266
LJ  -0.28711038427412056   0.087596391158593467   -0.088869509411006214
LJ  0.49602999176387164   -0.069626200483322215   -0.063558472873347996
LJ  -0.16001049652777072   -0.41517263092191747   0.42433252141713917
LJ  0.48323317681133154   0.3921208487804973   0.44193414810095544
LJ  0.4327607568263514   0.048318277453113144   0.3058248766132442
LJ  0.21241118074232473   0.06180653692527123   0.22549325513434607
LJ  0.49299932110097455   -0.1525319052893416   0.45241394993658729
LJ  0.34171419106351603   0.26568558273871967   0.37219948042756157
LJ  -0.46245879859113687   -0.28398871987888369   0.12189860032158141
LJ  -0.43281476818177472   0.43227128787555302   0.14094026499696313
LJ  0.046742065292168497   0.42211715041716841   0.02540662012971738
LJ  0.2715882561630717   -0.22856913178938473   0.28875235997805943
LJ  0.058988711890925236   -0.14283977549035251   0.4593420266057206
LJ  -0.19623701661908155   -0.24765453737034285   -0.21586124519712913
LJ  0.20350285256989983   -0.44813188029315337   0.090423321383088714
LJ  0.48871403295533516   0.26954792812263778   -0.30113420808467684
LJ  0.40393604130192395   0.27172630906090728   0.25364064696432032
LJ  0.44210540312215701   0.16303252287608824   -0.45741957205568146
LJ  0.017473146287014445   0.17183137192080031   -0.15085281286398869
LJ  -0.45402938274727078   -0.16878768108046807   0.38011925483143888
LJ  0.17081503619872548   0.4307306778107779   0.2426438165564799
LJ  -0.061825821932409285   0.37477947333565237   -0.084475569788261984
LJ  0.27574664609662775   0.16618186973523652   -0.25652948132757625
LJ  0.4978289408357065   -0.40278944203524836   0.1002303526642937
LJ  0.35074303015727998   0.30448545833273732   -0.32957137937477993
LJ  -0.15711201266970606   -0.081110783081854626   -0.39554155966528709
LJ  0.37827713492177228   -0.38262214784853682   -0.43977739685976974
LJ  -0.49809374090651604   0.41488466389894529   -0.35799790160733053
LJ  0.37476599485907042   -0.17802224682625975   -0.2728270920624416
LJ  -0.083093337783459967   -0.28837364968658236   -0.38665915014076968
LJ  0.44030212501185423   0.074118786538991344   0.41112515055778281
LJ  0.00081837183402086575   0.27322109057448346   0.26811878196429689
LJ  -0.3369710638612381   0.2693757136370421   0.012765142198489107
LJ  0.38204804142428545   -0.47579606789971823   0.39685691887309221
LJ  0.31047370116550754   0.41616173876146256   -0.068086739922468303
LJ  -0.27439825049878636   0.24027777798352862   -0.29981329088072062
LJ  -0.10323207539829507   0.15439255641664151   -0.40634689879046781
LJ  -0.37827371285196942   0.30818996120465258   0.17251366644181707
LJ  -0.43221950677677606   -0.31330725349511618   0.40157588303137276
LJ  0.10396424957612105   -0.28366766294109425   -0.20104966571968838
LJ  0.2070675515083252   0.30737136624344735   0.48005958885128847
LJ  0.45971353223133016   0.09833723157069138   0.11634023860400712
LJ  0.30076561642099325   0.44207517038900163   -0.46950022169585132
LJ  0.14229303284288283   -0.1008683701818214   -0.31100633104781594
LJ  0.22427488470152507   -0.43174150951898044   -0.20715110053815391
LJ  -0.16644115365692003   0.32068487702343768   -0.48025748681025932
LJ  0.48080728486392388   0.46239166276805294   0.18208174671133803
LJ  0.059723507530053191   0.13341944797371241   -0.050672225359205188
LJ  0.055550715723975831   0.36440482758902781   -0.10846374509873202
LJ  -0.27380807991530587   -0.25406807422357092   -0.26491127445312646
LJ  0.35926073664576669   0.18280853180780854   0.32259657476585679
LJ  -0.47677789524432806   0.049081765938334056   0.22401175201002976
LJ  -0.24051989895038572   0.17720685615678944   -0.35930701478632809
LJ  -0.14155160761223601   0.091882779722359698   -0.49493217498093361
LJ  -0.49253223073551422   -0.39600333771898977   0.37964433770632749
LJ  0.13072487445039777   0.32857199309143303   0.41217011357433386
LJ  -0.056040289748396338   -0.20912494618618169   -0.47470264673937307
LJ  0.45867914640563651   0.2307800237954393   -0.36581185820739687
LJ  -0.48021616901258618   -0.4398382314781612   0.2490991117916668
LJ  0.30134599982924692   -0.22942657152382309   0.21249681189240474
LJ  0.46761265413787639   -0.23543190027741803   -0.4823878445357318
LJ  0.17663815093920862   -0.47068048218451486   -0.27125220624981244
LJ  -0.2907897159067977   0.064027470956932508   0.45578593446193472
LJ  0.26185587976772451   -0.39379519264691915   0.35105223098268123
LJ  0.20550392667814449   -0.30146047078032467   0.13158630849898803
LJ  -0.36625815326807365   -0.29467495156826012   -0.078843366239433554
LJ  0.43798179351581251   -0.094551821461812652   -0.27035893122219595
LJ  -0.022426586065593331   -0.26550531642413616   0.44410955833692678
LJ  0.003090426852438257   0.44191205708675163   0.11467601310958163
LJ  0.1251103311314733   -0.33005355501015538   -0.43787680214992719
LJ  0.27453694861490419   0.41234279329796375   0.3675943961465028
LJ  0.0069428674048177897   0.34840213929261349   0.028879825921959128
LJ  -0.47873320969637012   0.33191073589860876   0.093051549169627476
LJ  -0.35107637008334491   -0.089796035651740061   0.25194961188227488
LJ  0.11916146924269304   0.34149266080216706   -0.00078086374708379979
LJ  0.36809316551028937   0.064301377546084504   -0.17572027151630307
LJ  0.260622969422586   0.024968426799130403   -0.21673426289362316
LJ  -0.32396682975456248   -0.15888302716022987   0.051702135050815806
LJ  0.30769925925815761   0.25643738347941958   0.19779770584195761
LJ  0.40438950230759513   0.21062507121117302   0.41868892553569026
